(set-logic QF_UF)
(declare-fun A1 () Bool)
(declare-fun A2 () Bool)
(declare-fun A3 () Bool)
(declare-fun A4 () Bool)
(declare-fun A5 () Bool)
(declare-fun A6 () Bool)
(declare-fun A7 () Bool)
(declare-fun A8 () Bool)
(declare-fun A9 () Bool)
(declare-fun A10 () Bool)
(declare-fun A11 () Bool)
(declare-fun A12 () Bool)
(declare-fun A13 () Bool)
(declare-fun A14 () Bool)
(declare-fun A15 () Bool)
(declare-fun A16 () Bool)
(declare-fun A18 () Bool)
(declare-fun A19 () Bool)
(declare-fun A20 () Bool)
(declare-fun A21 () Bool)
(declare-fun A22 () Bool)
(declare-fun A23 () Bool)
(declare-fun A24 () Bool)
(declare-fun A25 () Bool)
(declare-fun A26 () Bool)
(declare-fun A27 () Bool)
(declare-fun A28 () Bool)
(declare-fun A29 () Bool)
(assert (let ((.def_0 (not A2))) (let ((.def_1 (not A9))) (let ((.def_2 (and .def_1 .def_0))) (let ((.def_3 (or A14 A4))) (let ((.def_4 (or .def_3 .def_2))) (let ((.def_5 (not .def_4))) (let ((.def_6 (or A13 A14))) (let ((.def_7 (not .def_6))) (let ((.def_8 (or A9 A25))) (let ((.def_9 (not .def_8))) (let ((.def_10 (and .def_9 .def_7))) (let ((.def_11 (and .def_10 .def_5))) (let ((.def_12 (not .def_11))) (let ((.def_13 (not A5))) (let ((.def_14 (or .def_13 A16))) (let ((.def_15 (= A12 A26))) (let ((.def_16 (not .def_15))) (let ((.def_17 (= .def_16 .def_14))) (let ((.def_18 (not .def_17))) (let ((.def_19 (not A21))) (let ((.def_20 (or .def_19 A16))) (let ((.def_21 (not A26))) (let ((.def_22 (and .def_21 .def_13))) (let ((.def_23 (not .def_22))) (let ((.def_24 (or .def_23 .def_20))) (let ((.def_25 (or .def_24 .def_18))) (let ((.def_26 (not .def_25))) (let ((.def_27 (or .def_26 .def_12))) (let ((.def_28 (not .def_27))) (let ((.def_29 (not A28))) (let ((.def_30 (not A16))) (let ((.def_31 (or .def_30 .def_29))) (let ((.def_32 (not .def_31))) (let ((.def_33 (and A12 A10))) (let ((.def_34 (not .def_33))) (let ((.def_35 (and .def_34 .def_32))) (let ((.def_36 (not .def_35))) (let ((.def_37 (not A11))) (let ((.def_38 (or .def_37 A6))) (let ((.def_39 (not .def_38))) (let ((.def_40 (not A27))) (let ((.def_41 (not A29))) (let ((.def_42 (or .def_41 .def_40))) (let ((.def_43 (not .def_42))) (let ((.def_44 (and .def_43 .def_39))) (let ((.def_45 (or .def_44 .def_36))) (let ((.def_46 (not .def_45))) (let ((.def_47 (and .def_30 A29))) (let ((.def_48 (not .def_47))) (let ((.def_49 (not A20))) (let ((.def_50 (or A1 .def_49))) (let ((.def_51 (not .def_50))) (let ((.def_52 (and .def_51 .def_48))) (let ((.def_53 (not .def_52))) (let ((.def_54 (or A6 A23))) (let ((.def_55 (or A10 A25))) (let ((.def_56 (and .def_55 .def_54))) (let ((.def_57 (not .def_56))) (let ((.def_58 (or .def_57 .def_53))) (let ((.def_59 (or .def_58 .def_46))) (let ((.def_60 (not .def_59))) (let ((.def_61 (or .def_60 .def_28))) (let ((.def_62 (or A15 A21))) (let ((.def_63 (not .def_62))) (let ((.def_64 (and A4 A25))) (let ((.def_65 (and .def_64 .def_63))) (let ((.def_66 (or A26 A26))) (let ((.def_67 (not .def_66))) (let ((.def_68 (and .def_0 A19))) (let ((.def_69 (and .def_68 .def_67))) (let ((.def_70 (and .def_69 .def_65))) (let ((.def_71 (not .def_70))) (let ((.def_72 (= A20 A2))) (let ((.def_73 (not .def_72))) (let ((.def_74 (and .def_21 .def_19))) (let ((.def_75 (and .def_74 .def_73))) (let ((.def_76 (not .def_75))) (let ((.def_77 (and A25 A6))) (let ((.def_78 (and A4 A15))) (let ((.def_79 (and .def_78 .def_77))) (let ((.def_80 (and .def_79 .def_76))) (let ((.def_81 (not .def_80))) (let ((.def_82 (or .def_81 .def_71))) (let ((.def_83 (not .def_82))) (let ((.def_84 (not A19))) (let ((.def_85 (or A8 .def_84))) (let ((.def_86 (not .def_85))) (let ((.def_87 (not A14))) (let ((.def_88 (not A24))) (let ((.def_89 (and .def_88 .def_87))) (let ((.def_90 (or .def_89 .def_86))) (let ((.def_91 (and .def_49 A6))) (let ((.def_92 (and .def_88 A18))) (let ((.def_93 (not .def_92))) (let ((.def_94 (and .def_93 .def_91))) (let ((.def_95 (not .def_94))) (let ((.def_96 (and .def_95 .def_90))) (let ((.def_97 (not .def_96))) (let ((.def_98 (and .def_1 .def_41))) (let ((.def_99 (not .def_98))) (let ((.def_100 (or A22 A8))) (let ((.def_101 (and .def_100 .def_99))) (let ((.def_102 (and A22 A16))) (let ((.def_103 (not .def_102))) (let ((.def_104 (not A3))) (let ((.def_105 (and A7 .def_104))) (let ((.def_106 (and .def_105 .def_103))) (let ((.def_107 (not .def_106))) (let ((.def_108 (= .def_107 .def_101))) (let ((.def_109 (and .def_108 .def_97))) (let ((.def_110 (or .def_109 .def_83))) (let ((.def_111 (or .def_110 .def_61))) (let ((.def_112 (not .def_111))) .def_112))))))))))))))))))))))))))))))))))))))))))))))))))))))))))))))))))))))))))))))))))))))))))))))))))))))))))))))))))
(check-sat)
